Graphene
1.0
2.133341911 -1.231685527 0.00000000
2.133341911 1.231685527 0.00000000
0.000000000 0.000000000 10.00000000
2
Direct
0 0 0
0.666666667 0.666666667 0