NiPS3 rectangular
1.0
5.8409578953 0 0
0 10.1158346067 0
0 0 28.9379698003
4 4 12
Direct
0.9972495903	0.9967331463	0.3333402904
0.4972386659	0.1639956289	0.3333260394
0.4972466683	0.4967331347	0.3333371850
0.9972415529	0.6639955839	0.3333293961
0.9970273625	0.3303830076	0.3709620521
0.9973841064	0.3303839274	0.2957005726
0.4970291675	0.8303831280	0.3709661503
0.4973858135	0.8303838114	0.2957046701
0.6573144411	0.3303908346	0.2792350958
0.1675446625	0.5004813252	0.2793511118
0.1675235176	0.1602820103	0.2793467967
0.3370743712	0.3303704222	0.3874326993
0.8268594412	0.5004834414	0.3873142060
0.8268499733	0.1602862665	0.3873108179
0.1573154242	0.8303906295	0.2792396601
0.6675483928	0.0004786181	0.2793534272
0.6675273941	0.6602843602	0.2793493427
0.8370754229	0.8303706199	0.3874372733
0.3268632678	0.0004861644	0.3873165169
0.3268539588	0.6602839073	0.3873133628
