1ML Phosphorene     
1.0000    
   3.260130227   0.000000000   0.000000000
   0.000000000   4.347030727   0.000000000
   0.000000000   0.000000000  18.000000000
   P 
     4     
Direct
        0.000000000   0.581148592   0.398981648
        0.000000000   0.418851468   0.515910710
        0.500000000   0.081148717   0.515910795
        0.500000000   0.918851222   0.398981735

