hBN ML        #a=2.502
1.000000
2.16680	-1.25100	0.00000
2.16680	1.25100	0.00000
0.00000	0.00000	3.00000
   B  N
   1  1
Selective dynamics
Direct
0.000000000 0.000000000	0.000000000	T	T	T
0.666666667 0.666666667 0.000000000	T	T	T

