 Ni(111)    
   3.520     
     0.7071067800000000    0.0000000000000000    0.0000000000000000
    -0.3535533900000000    0.6123724000000000    0.0000000000000000
     0.0000000000000000    0.0000000000000000    7.7562499999999996
   Ni    
     6     
Selective dynamics
Direct
  0.6666666699999979  0.3333333300000021  0.0008622526745441   T   T   T
  0.0000000000000000  0.0000000000000000  0.0743464814829196   T   T   T
  0.3333333300000021  0.6666666699999979  0.1487813325499516   T   T   T
  0.6666666699999979  0.3333333300000021  0.2233263627425157   T   T   T
 -0.0000000000000000 -0.0000000000000000  0.2975003069881931   T   T   T
  0.3333333300000021  0.6666666699999979  0.3717127970044933   T   T   T


