1ML Phosphorene     
1.0000    
3.31360	0.00000	0.00000
0.00000	4.37630	0.00000
0.00000	0.00000	18.00000
   P 
     4     
Direct
 0.0000	0.59  0.002000000
 0.0000	0.41  0.112892444
 0.5000	0.09  0.112892444
 0.5000	0.91  0.002000000
