graphene ML        #a=2.464
1.000000
2.13389	-1.23200	0.00000
2.13389	1.23200	0.00000
0.00000	0.00000	3.00000
   C
   2
Selective dynamics
Direct
0.000000000 0.000000000	0.000000000	T	T	T
0.666666667 0.666666667 0.000000000	T	T	T

